
  32    4
  10   10   10   10

   0   0   0   0   0  15 2 3 4 5 6 7 8 9 10 11 12 14 29 30 31 
   2   1   1   1   0   6 27 24 22 20 18 15 
   9   3   6   0   1   5 20 19 18 15 13 
   8   4   0   5   3   5 28 24 23 21 16 
   1   6   5   5   0   5 19 18 17 16 15 
   8   3   3   4   0   4 22 20 19 18 
   1   4   5   5   0   4 26 20 17 15 
   8   0   4   4   2   4 23 22 16 15 
  10   3   6   6   0   3 25 21 15 
   6   5   4   0   6   2 21 19 
   7   3   2   4   0   2 18 17 
   3   3   5   0   6   2 17 16 
   4   2   1   0   4   1 16 
  10   4   0   3   4   1 17 
  10   3   3   0   6   1 32
   4   5   3   5   0   1 32
   5   6   5   5   0   1 32
   1   6   3   4   0   1 32
   1   2   0   2   4   1 32
   9   3   0   5   6   1 32
   1   2   0   4   5   1 32
   5   5   3   0   4   1 32
   9   4   7   0   4   1 32
   2   6   6   0   3   1 32
   3   4   0   1   3   1 32
   1   6   1   0   3   1 32
   8   6   4   0   2   1 32
   4   0   6   4   4   1 32
   8   0   7   5   6   1 32
   3   3   2   5   0   1 32
   3   6   0   3   4   1 32
   0   0   0   0   0   0 
